12 24 6 10
2 1 14 14 15 12 5 12 17 9 17 12 5 10 20 1 9 19 14 1 8 18 17 7 
0.53 6.88 6.95 4.31 5.08 1.7 1.06 7.27 3.65 3.06 4.43 0.54 4.37 0.87 5.31 3.5 7.78 2.22 5.48 4.44 4.23 5.95 1.28 2.15 
1.31 0.49 1.18 4.81 6.18 6.88 7.49 4.21 5.54 6.07 1.01 4.82 7.86 2.32 1.66 0.66 1.4 0.17 6.71 2 1.21 0.35 7.84 1.32 
2.72 1.94 2.14 0.46 2.67 3.45 4.18 3.77 3.04 3.8 3.79 5.59 5 5.8 6.12 2.36 5.56 5.99 0.93 6.73 6.52 3.75 0.14 1.02 
0.22 0.86 2.99 5.1 2.9 6.29 4.29 7.23 6.41 5.22 4.45 7.86 6.66 2.02 6.57 3.59 4.56 3.97 5.54 5 0.46 5.59 6.49 5.7 
6.37 2.16 3.28 1.73 7.63 3.24 4.75 0.38 4.8 3.98 6.45 2.99 5.91 3.48 0.26 6.53 3.91 0.93 6.12 1.95 6.42 0.59 7.39 5.86 
5.72 2.26 0.78 4.33 7.45 7.14 4.23 7.55 5.86 3.74 4.28 4.97 6.55 2.09 6.83 7.42 5.19 1 3 2.86 0.71 7.34 2.15 0.16 
4 4 4 4 4 4 4 4 4 4 4 4 4 4 4 4 4 4 4 4 4 4 4 4 
1.19 0.85 1.61 1.78 0.57 5.47 4.64 0.67 4.82 4.57 3.44 4.53 0.85 7.97 7 5.63 2.91 0.24 2.19 6.96 3.15 4.02 0.8 2.83 
7.43 0.86 7.22 7.51 1.73 1.64 7.98 1.58 0.04 2.8 2.4 3.16 4.71 0.94 0.56 2.99 5.68 4.41 6.18 6.44 6.64 6.56 0.8 7.24 
1.33 3.76 6.08 6.86 6.43 6.74 4.93 4.29 4.29 0.79 6.96 7.29 5.17 5.24 5.92 4.2 1.23 0.65 3.37 5.21 2.6 7.96 1.67 7.98 
2.27 0.25 3.23 5.6 0.49 6.4 3.74 3.45 0.34 3.5 4.36 4.11 0.12 3.6 7.55 5.53 4.11 7.48 1.16 5.05 1.79 5.31 6.48 2.69 
5.65 0.02 7.66 6.54 3.3 4.55 5.21 5.04 6.91 0.26 6.89 7.79 2.76 4.27 5.67 4.84 1.93 3.98 7.09 6.44 1.94 0.13 4.7 1.61 
1 1 1 1 1 1 1 1 1 1 1 1 1 1 1 1 1 1 1 1 1 1 1 1 
1 1 1 1 1 1 1 1 1 1 1 1 1 1 1 1 1 1 1 1 1 1 1 1 
1 1 1 1 1 1 1 1 1 1 1 1 1 1 1 1 1 1 1 1 1 1 1 1 
1 1 1 1 1 1 1 1 1 1 1 1 1 1 1 1 1 1 1 1 1 1 1 1 
1 1 1 1 1 1 1 1 1 1 1 1 1 1 1 1 1 1 1 1 1 1 1 1 
1 1 1 1 1 1 1 1 1 1 1 1 1 1 1 1 1 1 1 1 1 1 1 1 
1 1 1 1 1 1 1 1 1 1 1 1 1 1 1 1 1 1 1 1 1 1 1 1 
1 1 1 1 1 1 1 1 1 1 1 1 1 1 1 1 1 1 1 1 1 1 1 1 
1 1 1 1 1 1 1 1 1 1 1 1 1 1 1 1 1 1 1 1 1 1 1 1 
1 1 1 1 1 1 1 1 1 1 1 1 1 1 1 1 1 1 1 1 1 1 1 1 
1 1 1 1 1 1 1 1 1 1 1 1 1 1 1 1 1 1 1 1 1 1 1 1 
1 1 1 1 1 1 1 1 1 1 1 1 1 1 1 1 1 1 1 1 1 1 1 1 
0.01 0.01 0.01 0.01 0.01 0.01 0.01 0.01 0.01 0.01 0.01 0.01 0.01 0.01 0.01 0.01 0.01 0.01 0.01 0.01 0.01 0.01 0.01 0.01 
0.02 0.02 0.02 0.02 0.02 0.02 0.02 0.02 0.02 0.02 0.02 0.02 0.02 0.02 0.02 0.02 0.02 0.02 0.02 0.02 0.02 0.02 0.02 0.02 
0.03 0.03 0.03 0.03 0.03 0.03 0.03 0.03 0.03 0.03 0.03 0.03 0.03 0.03 0.03 0.03 0.03 0.03 0.03 0.03 0.03 0.03 0.03 0.03 
0.04 0.04 0.04 0.04 0.04 0.04 0.04 0.04 0.04 0.04 0.04 0.04 0.04 0.04 0.04 0.04 0.04 0.04 0.04 0.04 0.04 0.04 0.04 0.04 
0.05 0.05 0.05 0.05 0.05 0.05 0.05 0.05 0.05 0.05 0.05 0.05 0.05 0.05 0.05 0.05 0.05 0.05 0.05 0.05 0.05 0.05 0.05 0.05 
0.06 0.06 0.06 0.06 0.06 0.06 0.06 0.06 0.06 0.06 0.06 0.06 0.06 0.06 0.06 0.06 0.06 0.06 0.06 0.06 0.06 0.06 0.06 0.06 
0.07 0.07 0.07 0.07 0.07 0.07 0.07 0.07 0.07 0.07 0.07 0.07 0.07 0.07 0.07 0.07 0.07 0.07 0.07 0.07 0.07 0.07 0.07 0.07 
0.2 0.2 0.2 0.2 0.2 0.2 0.2 0.2 0.2 0.2 0.2 0.2 0.2 0.2 0.2 0.2 0.2 0.2 0.2 0.2 0.2 0.2 0.2 0.2 
0.4 0.4 0.4 0.4 0.4 0.4 0.4 0.4 0.4 0.4 0.4 0.4 0.4 0.4 0.4 0.4 0.4 0.4 0.4 0.4 0.4 0.4 0.4 0.4 
0.6 0.6 0.6 0.6 0.6 0.6 0.6 0.6 0.6 0.6 0.6 0.6 0.6 0.6 0.6 0.6 0.6 0.6 0.6 0.6 0.6 0.6 0.6 0.6 
0.8 0.8 0.8 0.8 0.8 0.8 0.8 0.8 0.8 0.8 0.8 0.8 0.8 0.8 0.8 0.8 0.8 0.8 0.8 0.8 0.8 0.8 0.8 0.8 
1 1 1 1 1 1 1 1 1 1 1 1 1 1 1 1 1 1 1 1 1 1 1 1 
